%chk=phe.019.tddft.chk
# td=(nstat=3) b3lyp/6-31g(d)

phe | No.19

0 1
 C	-1.375642	-0.099769	0.320518
 H	-1.167384	0.408514	1.283646
 N	-1.243449	-1.557355	0.397587
 H	-0.305544	-1.783426	0.723786
 H	-1.898244	-1.925521	1.083945
 C	-2.819357	0.265713	-0.012156
 O	-3.179035	1.118014	-0.791861
 O	-3.698175	-0.458663	0.727461
 H	-4.587660	-0.155246	0.464897
 C	-0.419151	0.482800	-0.738505
 H	-0.643911	1.547700	-0.849649
 H	-0.648388	0.002110	-1.695473
 C	1.039135	0.285207	-0.382678
 C	1.729133	1.248362	0.367586
 C	1.731407	-0.868482	-0.780412
 C	3.066873	1.063339	0.718106
 H	1.212780	2.156053	0.673480
 C	3.070067	-1.057592	-0.431227
 H	1.214187	-1.619102	-1.373216
 C	3.742082	-0.092370	0.320313
 H	3.584001	1.825002	1.296082
 H	3.589283	-1.956748	-0.753031
 H	4.785418	-0.235902	0.588364



