%chk=phe.002.tddft.chk
# td=(nstat=3) b3lyp/6-31g(d)

phe | No.2

0 1
 C	-1.373790	0.066770	-0.320197
 H	-1.162779	-0.558624	-1.211065
 N	-1.238311	1.503370	-0.576390
 H	-0.285802	1.691696	-0.884323
 H	-1.861185	1.779844	-1.331936
 C	-2.819702	-0.248917	0.050689
 O	-3.186299	-0.979168	0.942978
 O	-3.691339	0.361144	-0.792881
 H	-4.583492	0.100892	-0.495336
 C	-0.419151	-0.372056	0.805796
 H	-0.651227	-1.410418	1.062788
 H	-0.637645	0.236189	1.689407
 C	1.037798	-0.236070	0.415777
 C	1.800148	0.861602	0.839014
 C	1.655738	-1.202474	-0.392278
 C	3.138715	0.993990	0.462575
 H	1.338158	1.616126	1.471239
 C	2.991901	-1.073995	-0.770898
 H	1.084868	-2.069238	-0.719688
 C	3.738662	0.026784	-0.344432
 H	3.712719	1.851250	0.804859
 H	3.452627	-1.836874	-1.393271
 H	4.781120	0.125944	-0.634990



