%chk=phe.006.tddft.chk
# td=(nstat=3) b3lyp/6-31g(d)

phe | No.6

0 1
 C	-1.419407	-0.340518	-0.002847
 H	-1.274936	-1.124861	0.766156
 N	-1.307912	-0.845536	-1.375248
 H	-0.364234	-1.201572	-1.517306
 H	-1.949927	-1.622955	-1.511813
 C	-2.839817	0.166568	0.228168
 O	-3.153680	1.213473	0.746823
 O	-3.758052	-0.742659	-0.188429
 H	-4.631900	-0.348886	-0.005570
 C	-0.404845	0.785081	0.236972
 H	-0.605418	1.216096	1.225614
 H	-0.601106	1.578212	-0.491550
 C	1.050204	0.357401	0.146480
 C	1.983894	1.198864	-0.474608
 C	1.519400	-0.832751	0.723285
 C	3.337554	0.864694	-0.525934
 H	1.641412	2.126807	-0.926754
 C	2.871878	-1.174328	0.669969
 H	0.827481	-1.501184	1.230248
 C	3.787458	-0.326556	0.045092
 H	4.039614	1.534637	-1.015578
 H	3.209852	-2.103138	1.122492
 H	4.840490	-0.591655	0.004186



