%chk=phe.017.tddft.chk
# td=(nstat=3) b3lyp/6-31g(d)

phe | No.17

0 1
 C	-1.408076	-0.149676	0.335026
 H	-1.234043	0.193169	1.374919
 N	-1.307586	-1.606016	0.194609
 H	-0.432572	-1.914423	0.613204
 H	-2.059149	-2.048258	0.719290
 C	-2.830319	0.303891	0.015251
 O	-3.139751	1.300406	-0.596840
 O	-3.755874	-0.529550	0.557536
 H	-4.626391	-0.156852	0.322145
 C	-0.408674	0.589427	-0.578807
 H	-0.607764	1.661354	-0.496567
 H	-0.636355	0.300857	-1.611795
 C	1.048499	0.306437	-0.272204
 C	1.859843	1.301743	0.289876
 C	1.643570	-0.921847	-0.605393
 C	3.211441	1.069851	0.550669
 H	1.424916	2.269879	0.528855
 C	2.993976	-1.158082	-0.344350
 H	1.044241	-1.688050	-1.089780
 C	3.782607	-0.164506	0.239080
 H	3.818933	1.857108	0.989769
 H	3.433565	-2.116240	-0.609935
 H	4.835517	-0.346716	0.437174



