%chk=phe.014.tddft.chk
# td=(nstat=3) b3lyp/6-31g(d)

phe | No.14

0 1
 C	-1.427921	-0.382730	0.021370
 H	-1.043753	-0.591549	1.038023
 N	-1.790463	-1.597688	-0.725727
 H	-0.956224	-2.149240	-0.911651
 H	-2.418188	-2.173900	-0.169252
 C	-2.704589	0.430394	0.245947
 O	-2.844587	1.620472	0.079964
 O	-3.702012	-0.356609	0.722891
 H	-4.473677	0.227477	0.846297
 C	-0.370460	0.440485	-0.738554
 H	-0.609027	1.500428	-0.615793
 H	-0.499258	0.220500	-1.807599
 C	1.070581	0.209214	-0.317931
 C	1.945236	1.301774	-0.231621
 C	1.579802	-1.061529	-0.012539
 C	3.281935	1.133645	0.130978
 H	1.570126	2.298642	-0.452000
 C	2.914428	-1.236026	0.356736
 H	0.931282	-1.933533	-0.051703
 C	3.773156	-0.138502	0.426981
 H	3.936973	1.999081	0.189894
 H	3.282057	-2.232168	0.589533
 H	4.812718	-0.273164	0.713296



