%chk=phe.001.tddft.chk
# td=(nstat=3) b3lyp/6-31g(d)

phe | No.1

0 1
 C	-1.372598	0.096984	-0.318620
 H	-1.161869	-0.421369	-1.275825
 N	-1.238261	1.553535	-0.409790
 H	-0.297890	1.775204	-0.731944
 H	-1.888110	1.915416	-1.104135
 C	-2.817905	-0.262924	0.013217
 O	-3.181458	-1.105630	0.801528
 O	-3.693083	0.454014	-0.737824
 H	-4.583921	0.154995	-0.474784
 C	-0.420064	-0.475500	0.749283
 H	-0.647804	-1.538552	0.872231
 H	-0.649957	0.016622	1.700212
 C	1.039184	-0.285425	0.393411
 C	1.737239	0.864753	0.790778
 C	1.719912	-1.245081	-0.369870
 C	3.074379	1.051166	0.434077
 H	1.226153	1.614530	1.389930
 C	3.055940	-1.062729	-0.728002
 H	1.198010	-2.148550	-0.678899
 C	3.738053	0.087987	-0.327303
 H	3.598490	1.947134	0.756833
 H	3.566171	-1.822174	-1.314957
 H	4.780039	0.229542	-0.601586



