%chk=phe.015.tddft.chk
# td=(nstat=3) b3lyp/6-31g(d)

phe | No.15

0 1
 C	-1.425916	-0.387864	0.065335
 H	-1.038185	-0.481704	1.097935
 N	-1.787207	-1.679321	-0.539684
 H	-0.960413	-2.268442	-0.604816
 H	-2.451029	-2.164398	0.060575
 C	-2.703470	0.443276	0.206379
 O	-2.839782	1.613751	-0.067162
 O	-3.706199	-0.294000	0.748103
 H	-4.475656	0.302028	0.815453
 C	-0.373588	0.357403	-0.782831
 H	-0.618407	1.422540	-0.768186
 H	-0.505467	0.022895	-1.820849
 C	1.068776	0.178728	-0.343697
 C	1.882789	1.307336	-0.172065
 C	1.644216	-1.081208	-0.119077
 C	3.219377	1.187388	0.211203
 H	1.459330	2.295023	-0.339354
 C	2.978111	-1.208377	0.269897
 H	1.052839	-1.984217	-0.249914
 C	3.772974	-0.073159	0.435988
 H	3.825694	2.080649	0.337622
 H	3.397295	-2.197048	0.438609
 H	4.812672	-0.171224	0.736389



