%chk=phe.016.tddft.chk
# td=(nstat=3) b3lyp/6-31g(d)

phe | No.16

0 1
 C	-1.428990	-0.180120	0.338966
 H	-1.276466	0.084024	1.404740
 N	-1.352341	-1.626590	0.104492
 H	-0.530291	-1.991033	0.580525
 H	-2.160041	-2.077846	0.528488
 C	-2.835365	0.325329	0.023445
 O	-3.111534	1.380236	-0.500196
 O	-3.790306	-0.537806	0.458503
 H	-4.647121	-0.127338	0.236162
 C	-0.401563	0.614186	-0.494631
 H	-0.591313	1.678174	-0.330450
 H	-0.619940	0.414349	-1.551232
 C	1.055718	0.302050	-0.210542
 C	1.911630	1.317608	0.238683
 C	1.618750	-0.953173	-0.498086
 C	3.270638	1.079465	0.450646
 H	1.504136	2.307247	0.433694
 C	2.976182	-1.196140	-0.284478
 H	0.992763	-1.733473	-0.920609
 C	3.807318	-0.182989	0.197196
 H	3.909887	1.883502	0.806364
 H	3.388223	-2.176353	-0.511099
 H	4.865361	-0.371849	0.358326



