%chk=phe.018.tddft.chk
# td=(nstat=3) b3lyp/6-31g(d)

phe | No.18

0 1
 C	-1.389175	-0.124439	0.327052
 H	-1.194480	0.297470	1.333763
 N	-1.270811	-1.585043	0.286100
 H	-0.358150	-1.848937	0.652262
 H	-1.970133	-2.000543	0.897544
 C	-2.824115	0.284173	0.005543
 O	-3.162258	1.215724	-0.688352
 O	-3.723331	-0.504850	0.648538
 H	-4.604905	-0.166552	0.402457
 C	-0.414899	0.545973	-0.662711
 H	-0.626697	1.618857	-0.671449
 H	-0.646253	0.163706	-1.663162
 C	1.042858	0.301947	-0.331837
 C	1.797482	1.279659	0.331370
 C	1.681536	-0.893205	-0.699309
 C	3.141500	1.065158	0.640432
 H	1.325690	2.220811	0.606033
 C	3.025252	-1.111851	-0.390920
 H	1.119180	-1.650299	-1.240118
 C	3.759661	-0.134030	0.282557
 H	3.707236	1.838345	1.153990
 H	3.500958	-2.043537	-0.686540
 H	4.807339	-0.301317	0.517976



