%chk=binol.chk
# opt=modredundant b3lyp/6-31g(d)

BINOL | Dihedral Angle Scan

0 1
 C                 -3.54994932    0.20674126    3.68969849
 C                 -3.18849933   -0.40149928    2.48002114
 C                 -3.54273714    0.19510476    1.26244110
 C                 -4.25842437    1.39994968    1.25453841
 C                 -4.61987659    2.00818891    2.46421577
 C                 -4.26564013    1.41158406    3.68179581
 H                 -3.27948068   -0.24877904    4.61934787
 H                 -2.64205564   -1.32142476    2.48605501
 C                 -3.18128527   -0.41313468    0.05276374
 C                 -4.61266136    1.99655421    0.03695838
 H                 -5.16632091    2.92811401    2.45818189
 H                 -4.54161820    1.87598744    4.60541131
 C                 -4.25120968    1.38831467   -1.17271898
 C                 -3.53552150    0.18347031   -1.16481630
 H                 -5.15910647    2.91647885    0.03092450
 H                 -4.52167577    1.84383649   -2.10236836
 C                 -4.45160314   -5.40385125    0.07291952
 C                 -3.05031702   -5.38645728    0.07699806
 C                 -2.36472041   -4.16421974    0.07317267
 C                 -3.08040991   -2.95937616    0.06527021
 C                 -4.48169602   -2.97677013    0.06119229
 C                 -5.16729264   -4.19900766    0.06501793
 H                 -0.41698949   -5.06675057    0.08328858
 H                 -4.97507137   -6.33705674    0.07583842
 H                 -2.50387221   -6.30638208    0.08303383
 C                 -0.96343430   -4.14682576    0.07725478
 C                 -2.39481330   -1.73713861    0.06144801
 H                 -5.02814083   -2.05684532    0.05515681
 H                 -6.23720568   -4.21228835    0.06190243
 C                 -0.99352719   -1.71974463    0.06552950
 C                 -0.27783770   -2.92458819    0.07343432
 H                  0.79207534   -2.91130750    0.07655145
 O                 -3.16669297   -0.43718212   -2.39918094
 H                 -3.81874568   -0.22545290   -3.07119136
 O                 -0.29393881   -0.47256345    0.06162813
 H                  0.54489362   -0.57476208    0.51716693

D 14 9 27 30 S 18 10.000000

