%chk=lactic_acid.chk
# opt=modredundant b3lyp/6-31g

Lactic acid

0 1
 C                 -0.26169752   -0.63696637    0.04571683
 H                  0.00944521   -0.16553278    0.96720041
 O                  0.30114259    0.09361183   -1.04715392
 H                 -0.03403589    0.99314251   -1.03715676
 C                 -1.79575800   -0.65925767   -0.08755569
 H                 -2.21690410   -1.20591409    0.73018676
 H                 -2.16934234    0.34334423   -0.07641302
 H                 -2.06690073   -1.13069127   -1.00903927
 C                  0.27598462   -2.07996351    0.02967971
 O                  1.32957348   -2.36583402    0.65561829
 O                 -0.42199918   -3.09503655   -0.69650576
 H                  0.20349548   -3.75372666   -1.00712414

D 5 1 9 11 S 18 10.000000

